c This is a CNF SAT formula in the DIMACS CNF format,
c produced with the bc2cnf translator by Tommi Junttila;
c see http://users.ics.aalto.fi/tjunttil/circuits/index.html
c phi_Gamma <-> 1
c phi_T_feature_det <-> 1
c phi_T_transitions <-> 1
c phi_T_transitions_consistency <-> 1
c phi_T <-> 1
c phi_sim_leaves <-> 1
c phi_sim_transition <-> 1
c phi_sim <-> 1
c FORMULA <-> 1
c pi_2_9 <-> 2
c pi_1_9 <-> 15
c pi_0_9 <-> 34
c pi_2_6 <-> 59
c pi_2_8 <-> 59
c pi_1_6 <-> 74
c pi_1_8 <-> 74
c pi_0_6 <-> 97
c pi_0_8 <-> 97
c pi_2_7 <-> 128
c pi_1_7 <-> 133
c pi_0_7 <-> 149
c pi_2_5 <-> 171
c pi_1_5 <-> 174
c pi_0_5 <-> 190
c pi_2_1 <-> 212
c pi_2_4 <-> 212
c pi_1_1 <-> 214
c pi_1_4 <-> 214
c pi_0_1 <-> 227
c pi_0_4 <-> 227
c pi_2_3 <-> 244
c pi_1_3 <-> 248
c pi_0_3 <-> 264
c pi_2_2 <-> 286
c pi_1_2 <-> 293
c pi_0_2 <-> 307
c pi_2_0 <-> 325
c pi_1_0 <-> 327
c pi_0_0 <-> 343
c alp_approved_1_0 <-> 365
c alp_approved_1_1 <-> 365
c alp_approved_1_2 <-> 365
c alp_approved_0_3 <-> 365
c alp_approved_1_4 <-> 365
c alp_approved_1_5 <-> 365
c alp_approved_0_6 <-> 365
c alp_approved_0_7 <-> 365
c alp_approved_0_8 <-> 365
c alp_approved_1_9 <-> 365
c alp_approved_1_3 <-> 366
c alp_approved_1_6 <-> 366
c alp_approved_1_7 <-> 366
c alp_approved_1_8 <-> 366
c approved_P100 <-> 366
c alp_approved_0_0 <-> 367
c alp_approved_0_1 <-> 367
c alp_approved_0_2 <-> 367
c alp_approved_0_4 <-> 367
c alp_approved_0_5 <-> 367
c alp_approved_0_9 <-> 367
c approved_P0 <-> 367
c tau_2_3_approved_1 <-> 417
c tau_2_3_approved_0 <-> 418
c tau_2_2_approved_1 <-> 419
c tau_2_2_approved_0 <-> 420
c tau_2_1_approved_1 <-> 421
c tau_2_1_approved_0 <-> 422
c tau_2_0_approved_1 <-> 423
c tau_2_0_approved_0 <-> 424
c tau_1_3_approved_1 <-> 462
c tau_1_3_approved_0 <-> 463
c tau_1_3_2 <-> 464
c tau_1_2_approved_1 <-> 465
c tau_1_2_approved_0 <-> 466
c tau_1_2_2 <-> 467
c tau_1_1_approved_1 <-> 468
c tau_1_1_approved_0 <-> 469
c tau_1_1_2 <-> 470
c tau_1_0_approved_1 <-> 471
c tau_1_0_approved_0 <-> 472
c tau_1_0_2 <-> 473
c tau_0_3_approved_1 <-> 536
c tau_0_3_approved_0 <-> 538
c tau_0_3_2 <-> 539
c tau_0_3_1 <-> 540
c tau_0_2_approved_1 <-> 541
c tau_0_2_approved_0 <-> 542
c tau_0_2_2 <-> 543
c tau_0_2_1 <-> 544
c tau_0_1_approved_1 <-> 545
c tau_0_1_approved_0 <-> 546
c tau_0_1_2 <-> 547
c tau_0_1_1 <-> 548
c tau_0_0_approved_1 <-> 549
c tau_0_0_approved_0 <-> 550
c tau_0_0_2 <-> 551
c tau_0_0_1 <-> 552
c lam_2_credit_score <-> 566
c lam_2_dependents <-> 568
c lam_2_monthly_income <-> 570
c lam_2_age <-> 571
c lam_1_credit_score <-> 585
c lam_1_dependents <-> 587
c lam_1_monthly_income <-> 589
c lam_1_age <-> 590
c lam_0_credit_score <-> 604
c lam_0_dependents <-> 606
c lam_0_monthly_income <-> 608
c lam_0_age <-> 609
p wcnf 609 1715 11  
11 1 0
11 2 -3 0
11 2 -6 0
11 -2 6 3 0
11 -3 4 0
11 -3 566 0
11 3 -566 -4 0
11 -4 -419 0
11 -4 5 0
11 4 -5 419 0
11 5 420 0
11 5 -367 0
11 -5 367 -420 0
11 6 -7 0
11 6 -8 0
11 -6 8 7 0
11 -7 13 0
11 -7 568 0
11 7 -568 -13 0
11 8 -9 0
11 8 -12 0
11 -8 12 9 0
11 -9 10 0
11 -9 570 0
11 9 -570 -10 0
11 -10 -423 0
11 -10 11 0
11 10 -11 423 0
11 11 424 0
11 11 -367 0
11 -11 367 -424 0
11 -12 13 0
11 -12 571 0
11 12 -571 -13 0
11 -13 -421 0
11 -13 14 0
11 13 -14 421 0
11 14 422 0
11 14 -367 0
11 -14 367 -422 0
11 15 -16 0
11 15 -21 0
11 -15 21 16 0
11 -16 17 0
11 -16 585 0
11 16 -585 -17 0
11 -17 -465 0
11 -17 18 0
11 17 -18 465 0
11 -18 19 0
11 -18 20 0
11 18 -20 -19 0
11 19 466 0
11 19 -367 0
11 -19 367 -466 0
11 20 -2 0
11 20 467 0
11 -20 -467 2 0
11 21 -22 0
11 21 -23 0
11 -21 23 22 0
11 -22 30 0
11 -22 587 0
11 22 -587 -30 0
11 23 -24 0
11 23 -29 0
11 -23 29 24 0
11 -24 25 0
11 -24 589 0
11 24 -589 -25 0
11 -25 -471 0
11 -25 26 0
11 25 -26 471 0
11 -26 27 0
11 -26 28 0
11 26 -28 -27 0
11 27 472 0
11 27 -367 0
11 -27 367 -472 0
11 28 -2 0
11 28 473 0
11 -28 -473 2 0
11 -29 30 0
11 -29 590 0
11 29 -590 -30 0
11 -30 -468 0
11 -30 31 0
11 30 -31 468 0
11 -31 32 0
11 -31 33 0
11 31 -33 -32 0
11 32 469 0
11 32 -367 0
11 -32 367 -469 0
11 33 -2 0
11 33 470 0
11 -33 -470 2 0
11 34 -35 0
11 34 -42 0
11 -34 42 35 0
1 34 0
11 -35 36 0
11 -35 604 0
11 35 -604 -36 0
11 -36 -541 0
11 -36 37 0
11 36 -37 541 0
11 -37 38 0
11 -37 39 0
11 37 -39 -38 0
11 38 542 0
11 38 -367 0
11 -38 367 -542 0
11 -39 40 0
11 -39 41 0
11 39 -41 -40 0
11 40 -2 0
11 40 543 0
11 -40 -543 2 0
11 41 -15 0
11 41 544 0
11 -41 -544 15 0
11 42 -43 0
11 42 -44 0
11 -42 44 43 0
11 -43 53 0
11 -43 606 0
11 43 -606 -53 0
11 44 -45 0
11 44 -52 0
11 -44 52 45 0
11 -45 46 0
11 -45 608 0
11 45 -608 -46 0
11 -46 -549 0
11 -46 47 0
11 46 -47 549 0
11 -47 48 0
11 -47 49 0
11 47 -49 -48 0
11 48 550 0
11 48 -367 0
11 -48 367 -550 0
11 -49 50 0
11 -49 51 0
11 49 -51 -50 0
11 50 -2 0
11 50 551 0
11 -50 -551 2 0
11 51 -15 0
11 51 552 0
11 -51 -552 15 0
11 -52 53 0
11 -52 609 0
11 52 -609 -53 0
11 -53 -545 0
11 -53 54 0
11 53 -54 545 0
11 -54 55 0
11 -54 56 0
11 54 -56 -55 0
11 55 546 0
11 55 -367 0
11 -55 367 -546 0
11 -56 57 0
11 -56 58 0
11 56 -58 -57 0
11 57 -2 0
11 57 547 0
11 -57 -547 2 0
11 58 -15 0
11 58 548 0
11 -58 -548 15 0
11 59 -60 0
11 59 -63 0
11 -59 63 60 0
11 -60 61 0
11 -60 566 0
11 60 -566 -61 0
11 -61 -420 0
11 -61 62 0
11 61 -62 420 0
11 62 419 0
11 62 -366 0
11 -62 366 -419 0
11 63 -64 0
11 63 -67 0
11 -63 67 64 0
11 -64 65 0
11 -64 568 0
11 64 -568 -65 0
11 -65 -424 0
11 -65 66 0
11 65 -66 424 0
11 66 423 0
11 66 -366 0
11 -66 366 -423 0
11 67 -68 0
11 67 -71 0
11 -67 71 68 0
11 -68 69 0
11 -68 570 0
11 68 -570 -69 0
11 -69 -422 0
11 -69 70 0
11 69 -70 422 0
11 70 421 0
11 70 -366 0
11 -70 366 -421 0
11 -71 72 0
11 -71 571 0
11 71 -571 -72 0
11 -72 73 0
11 -72 -418 0
11 72 418 -73 0
11 73 417 0
11 73 -366 0
11 -73 366 -417 0
11 74 -75 0
11 74 -80 0
11 -74 80 75 0
11 -75 76 0
11 -75 585 0
11 75 -585 -76 0
11 -76 77 0
11 -76 78 0
11 76 -78 -77 0
11 77 465 0
11 77 -366 0
11 -77 366 -465 0
11 -78 -466 0
11 -78 79 0
11 78 -79 466 0
11 79 467 0
11 79 -59 0
11 -79 59 -467 0
11 80 -81 0
11 80 -86 0
11 -80 86 81 0
11 -81 82 0
11 -81 587 0
11 81 -587 -82 0
11 -82 83 0
11 -82 84 0
11 82 -84 -83 0
11 83 471 0
11 83 -366 0
11 -83 366 -471 0
11 -84 -472 0
11 -84 85 0
11 84 -85 472 0
11 85 473 0
11 85 -59 0
11 -85 59 -473 0
11 86 -87 0
11 86 -92 0
11 -86 92 87 0
11 -87 88 0
11 -87 589 0
11 87 -589 -88 0
11 -88 89 0
11 -88 90 0
11 88 -90 -89 0
11 89 468 0
11 89 -366 0
11 -89 366 -468 0
11 -90 -469 0
11 -90 91 0
11 90 -91 469 0
11 91 470 0
11 91 -59 0
11 -91 59 -470 0
11 -92 93 0
11 -92 590 0
11 92 -590 -93 0
11 -93 94 0
11 -93 95 0
11 93 -95 -94 0
11 94 462 0
11 94 -366 0
11 -94 366 -462 0
11 -95 -463 0
11 -95 96 0
11 95 -96 463 0
11 96 -59 0
11 96 464 0
11 -96 -464 59 0
11 97 -98 0
11 97 -105 0
11 -97 105 98 0
1 97 0
11 -98 99 0
11 -98 604 0
11 98 -604 -99 0
11 -99 100 0
11 -99 101 0
11 99 -101 -100 0
11 100 541 0
11 100 -366 0
11 -100 366 -541 0
11 -101 -542 0
11 -101 102 0
11 101 -102 542 0
11 -102 103 0
11 -102 104 0
11 102 -104 -103 0
11 103 543 0
11 103 -59 0
11 -103 59 -543 0
11 104 544 0
11 104 -74 0
11 -104 74 -544 0
11 105 -106 0
11 105 -113 0
11 -105 113 106 0
11 -106 107 0
11 -106 606 0
11 106 -606 -107 0
11 -107 108 0
11 -107 109 0
11 107 -109 -108 0
11 108 549 0
11 108 -366 0
11 -108 366 -549 0
11 -109 -550 0
11 -109 110 0
11 109 -110 550 0
11 -110 111 0
11 -110 112 0
11 110 -112 -111 0
11 111 551 0
11 111 -59 0
11 -111 59 -551 0
11 112 552 0
11 112 -74 0
11 -112 74 -552 0
11 113 -114 0
11 113 -121 0
11 -113 121 114 0
11 -114 115 0
11 -114 608 0
11 114 -608 -115 0
11 -115 116 0
11 -115 117 0
11 115 -117 -116 0
11 116 545 0
11 116 -366 0
11 -116 366 -545 0
11 -117 -546 0
11 -117 118 0
11 117 -118 546 0
11 -118 119 0
11 -118 120 0
11 118 -120 -119 0
11 119 547 0
11 119 -59 0
11 -119 59 -547 0
11 120 548 0
11 120 -74 0
11 -120 74 -548 0
11 -121 122 0
11 -121 609 0
11 121 -609 -122 0
11 -122 123 0
11 -122 124 0
11 122 -124 -123 0
11 123 536 0
11 123 -366 0
11 -123 366 -536 0
11 -124 -538 0
11 -124 125 0
11 124 -125 538 0
11 -125 126 0
11 -125 127 0
11 125 -127 -126 0
11 126 -59 0
11 126 539 0
11 -126 -539 59 0
11 127 -74 0
11 127 540 0
11 -127 -540 74 0
11 128 -129 0
11 128 -130 0
11 -128 130 129 0
11 -129 69 0
11 -129 566 0
11 129 -566 -69 0
11 130 -64 0
11 130 -131 0
11 -130 131 64 0
11 131 -71 0
11 131 -132 0
11 -131 132 71 0
11 -132 65 0
11 -132 570 0
11 132 -570 -65 0
11 133 -134 0
11 133 -138 0
11 -133 138 134 0
11 -134 135 0
11 -134 585 0
11 134 -585 -135 0
11 -135 89 0
11 -135 136 0
11 135 -136 -89 0
11 -136 -469 0
11 -136 137 0
11 136 -137 469 0
11 137 470 0
11 137 -128 0
11 -137 128 -470 0
11 138 -139 0
11 138 -140 0
11 -138 140 139 0
11 -139 142 0
11 -139 587 0
11 139 -587 -142 0
11 140 -141 0
11 140 -145 0
11 -140 145 141 0
11 -141 142 0
11 -141 589 0
11 141 -589 -142 0
11 -142 83 0
11 -142 143 0
11 142 -143 -83 0
11 -143 -472 0
11 -143 144 0
11 143 -144 472 0
11 144 473 0
11 144 -128 0
11 -144 128 -473 0
11 -145 146 0
11 -145 590 0
11 145 -590 -146 0
11 -146 94 0
11 -146 147 0
11 146 -147 -94 0
11 -147 -463 0
11 -147 148 0
11 147 -148 463 0
11 148 464 0
11 148 -128 0
11 -148 128 -464 0
11 149 -150 0
11 149 -156 0
11 -149 156 150 0
1 149 0
11 -150 151 0
11 -150 604 0
11 150 -604 -151 0
11 -151 116 0
11 -151 152 0
11 151 -152 -116 0
11 -152 -546 0
11 -152 153 0
11 152 -153 546 0
11 -153 154 0
11 -153 155 0
11 153 -155 -154 0
11 154 547 0
11 154 -128 0
11 -154 128 -547 0
11 155 548 0
11 155 -133 0
11 -155 133 -548 0
11 156 -157 0
11 156 -158 0
11 -156 158 157 0
11 -157 160 0
11 -157 606 0
11 157 -606 -160 0
11 158 -159 0
11 158 -165 0
11 -158 165 159 0
11 -159 160 0
11 -159 608 0
11 159 -608 -160 0
11 -160 108 0
11 -160 161 0
11 160 -161 -108 0
11 -161 -550 0
11 -161 162 0
11 161 -162 550 0
11 -162 163 0
11 -162 164 0
11 162 -164 -163 0
11 163 551 0
11 163 -128 0
11 -163 128 -551 0
11 164 552 0
11 164 -133 0
11 -164 133 -552 0
11 -165 166 0
11 -165 609 0
11 165 -609 -166 0
11 -166 123 0
11 -166 167 0
11 166 -167 -123 0
11 -167 -538 0
11 -167 168 0
11 167 -168 538 0
11 -168 169 0
11 -168 170 0
11 168 -170 -169 0
11 169 539 0
11 169 -128 0
11 -169 128 -539 0
11 170 540 0
11 170 -133 0
11 -170 133 -540 0
11 171 -3 0
11 171 -172 0
11 -171 172 3 0
11 172 -8 0
11 172 -173 0
11 -172 173 8 0
11 -173 10 0
11 -173 568 0
11 173 -568 -10 0
11 174 -175 0
11 174 -179 0
11 -174 179 175 0
11 -175 176 0
11 -175 585 0
11 175 -585 -176 0
11 -176 -465 0
11 -176 177 0
11 176 -177 465 0
11 -177 19 0
11 -177 178 0
11 177 -178 -19 0
11 178 467 0
11 178 -171 0
11 -178 171 -467 0
11 179 -180 0
11 179 -181 0
11 -179 181 180 0
11 -180 183 0
11 -180 587 0
11 180 -587 -183 0
11 181 -182 0
11 181 -186 0
11 -181 186 182 0
11 -182 183 0
11 -182 589 0
11 182 -589 -183 0
11 -183 -471 0
11 -183 184 0
11 183 -184 471 0
11 -184 27 0
11 -184 185 0
11 184 -185 -27 0
11 185 473 0
11 185 -171 0
11 -185 171 -473 0
11 -186 187 0
11 -186 590 0
11 186 -590 -187 0
11 -187 -468 0
11 -187 188 0
11 187 -188 468 0
11 -188 32 0
11 -188 189 0
11 188 -189 -32 0
11 189 470 0
11 189 -171 0
11 -189 171 -470 0
11 190 -191 0
11 190 -197 0
11 -190 197 191 0
1 190 0
11 -191 192 0
11 -191 604 0
11 191 -604 -192 0
11 -192 -541 0
11 -192 193 0
11 192 -193 541 0
11 -193 38 0
11 -193 194 0
11 193 -194 -38 0
11 -194 195 0
11 -194 196 0
11 194 -196 -195 0
11 195 543 0
11 195 -171 0
11 -195 171 -543 0
11 196 544 0
11 196 -174 0
11 -196 174 -544 0
11 197 -198 0
11 197 -199 0
11 -197 199 198 0
11 -198 201 0
11 -198 606 0
11 198 -606 -201 0
11 199 -200 0
11 199 -206 0
11 -199 206 200 0
11 -200 201 0
11 -200 608 0
11 200 -608 -201 0
11 -201 -549 0
11 -201 202 0
11 201 -202 549 0
11 -202 48 0
11 -202 203 0
11 202 -203 -48 0
11 -203 204 0
11 -203 205 0
11 203 -205 -204 0
11 204 551 0
11 204 -171 0
11 -204 171 -551 0
11 205 552 0
11 205 -174 0
11 -205 174 -552 0
11 -206 207 0
11 -206 609 0
11 206 -609 -207 0
11 -207 -545 0
11 -207 208 0
11 207 -208 545 0
11 -208 55 0
11 -208 209 0
11 208 -209 -55 0
11 -209 210 0
11 -209 211 0
11 209 -211 -210 0
11 210 547 0
11 210 -171 0
11 -210 171 -547 0
11 211 548 0
11 211 -174 0
11 -211 174 -548 0
11 212 -6 0
11 212 -213 0
11 -212 213 6 0
11 -213 13 0
11 -213 566 0
11 213 -566 -13 0
11 214 -215 0
11 214 -216 0
11 -214 216 215 0
11 -215 224 0
11 -215 585 0
11 215 -585 -224 0
11 216 -217 0
11 216 -218 0
11 -216 218 217 0
11 -217 224 0
11 -217 587 0
11 217 -587 -224 0
11 218 -219 0
11 218 -223 0
11 -218 223 219 0
11 -219 220 0
11 -219 589 0
11 219 -589 -220 0
11 -220 -471 0
11 -220 221 0
11 220 -221 471 0
11 -221 27 0
11 -221 222 0
11 221 -222 -27 0
11 222 473 0
11 222 -212 0
11 -222 212 -473 0
11 -223 224 0
11 -223 590 0
11 223 -590 -224 0
11 -224 -468 0
11 -224 225 0
11 224 -225 468 0
11 -225 32 0
11 -225 226 0
11 225 -226 -32 0
11 226 470 0
11 226 -212 0
11 -226 212 -470 0
11 227 -228 0
11 227 -229 0
11 -227 229 228 0
1 227 0
11 -228 239 0
11 -228 604 0
11 228 -604 -239 0
11 229 -230 0
11 229 -231 0
11 -229 231 230 0
11 -230 239 0
11 -230 606 0
11 230 -606 -239 0
11 231 -232 0
11 231 -238 0
11 -231 238 232 0
11 -232 233 0
11 -232 608 0
11 232 -608 -233 0
11 -233 -549 0
11 -233 234 0
11 233 -234 549 0
11 -234 48 0
11 -234 235 0
11 234 -235 -48 0
11 -235 236 0
11 -235 237 0
11 235 -237 -236 0
11 236 551 0
11 236 -212 0
11 -236 212 -551 0
11 237 552 0
11 237 -214 0
11 -237 214 -552 0
11 -238 239 0
11 -238 609 0
11 238 -609 -239 0
11 -239 -545 0
11 -239 240 0
11 239 -240 545 0
11 -240 55 0
11 -240 241 0
11 240 -241 -55 0
11 -241 242 0
11 -241 243 0
11 241 -243 -242 0
11 242 547 0
11 242 -212 0
11 -242 212 -547 0
11 243 548 0
11 243 -214 0
11 -243 214 -548 0
11 244 -245 0
11 244 -246 0
11 -244 246 245 0
11 -245 65 0
11 -245 566 0
11 245 -566 -65 0
11 246 -131 0
11 246 -247 0
11 -246 247 131 0
11 -247 69 0
11 -247 568 0
11 247 -568 -69 0
11 248 -249 0
11 248 -250 0
11 -248 250 249 0
11 -249 257 0
11 -249 585 0
11 249 -585 -257 0
11 250 -251 0
11 250 -255 0
11 -250 255 251 0
11 -251 252 0
11 -251 587 0
11 251 -587 -252 0
11 -252 89 0
11 -252 253 0
11 252 -253 -89 0
11 -253 -469 0
11 -253 254 0
11 253 -254 469 0
11 254 470 0
11 254 -244 0
11 -254 244 -470 0
11 255 -256 0
11 255 -260 0
11 -255 260 256 0
11 -256 257 0
11 -256 589 0
11 256 -589 -257 0
11 -257 83 0
11 -257 258 0
11 257 -258 -83 0
11 -258 -472 0
11 -258 259 0
11 258 -259 472 0
11 259 473 0
11 259 -244 0
11 -259 244 -473 0
11 -260 261 0
11 -260 590 0
11 260 -590 -261 0
11 -261 94 0
11 -261 262 0
11 261 -262 -94 0
11 -262 -463 0
11 -262 263 0
11 262 -263 463 0
11 263 464 0
11 263 -244 0
11 -263 244 -464 0
11 264 -265 0
11 264 -266 0
11 -264 266 265 0
1 264 0
11 -265 275 0
11 -265 604 0
11 265 -604 -275 0
11 266 -267 0
11 266 -273 0
11 -266 273 267 0
11 -267 268 0
11 -267 606 0
11 267 -606 -268 0
11 -268 116 0
11 -268 269 0
11 268 -269 -116 0
11 -269 -546 0
11 -269 270 0
11 269 -270 546 0
11 -270 271 0
11 -270 272 0
11 270 -272 -271 0
11 271 547 0
11 271 -244 0
11 -271 244 -547 0
11 272 548 0
11 272 -248 0
11 -272 248 -548 0
11 273 -274 0
11 273 -280 0
11 -273 280 274 0
11 -274 275 0
11 -274 608 0
11 274 -608 -275 0
11 -275 108 0
11 -275 276 0
11 275 -276 -108 0
11 -276 -550 0
11 -276 277 0
11 276 -277 550 0
11 -277 278 0
11 -277 279 0
11 277 -279 -278 0
11 278 551 0
11 278 -244 0
11 -278 244 -551 0
11 279 552 0
11 279 -248 0
11 -279 248 -552 0
11 -280 281 0
11 -280 609 0
11 280 -609 -281 0
11 -281 123 0
11 -281 282 0
11 281 -282 -123 0
11 -282 -538 0
11 -282 283 0
11 282 -283 538 0
11 -283 284 0
11 -283 285 0
11 283 -285 -284 0
11 284 539 0
11 284 -244 0
11 -284 244 -539 0
11 285 540 0
11 285 -248 0
11 -285 248 -540 0
11 286 -287 0
11 286 -288 0
11 -286 288 287 0
11 -287 10 0
11 -287 566 0
11 287 -566 -10 0
11 288 -173 0
11 288 -289 0
11 -288 289 173 0
11 289 -9 0
11 289 -290 0
11 -289 290 9 0
11 -290 291 0
11 -290 571 0
11 290 -571 -291 0
11 -291 -417 0
11 -291 292 0
11 291 -292 417 0
11 292 418 0
11 292 -367 0
11 -292 367 -418 0
11 293 -294 0
11 293 -295 0
11 -293 295 294 0
11 -294 299 0
11 -294 585 0
11 294 -585 -299 0
11 295 -296 0
11 295 -297 0
11 -295 297 296 0
11 -296 299 0
11 -296 587 0
11 296 -587 -299 0
11 297 -298 0
11 297 -302 0
11 -297 302 298 0
11 -298 299 0
11 -298 589 0
11 298 -589 -299 0
11 -299 -471 0
11 -299 300 0
11 299 -300 471 0
11 -300 27 0
11 -300 301 0
11 300 -301 -27 0
11 301 473 0
11 301 -286 0
11 -301 286 -473 0
11 -302 303 0
11 -302 590 0
11 302 -590 -303 0
11 -303 -462 0
11 -303 304 0
11 303 -304 462 0
11 -304 305 0
11 -304 306 0
11 304 -306 -305 0
11 305 463 0
11 305 -367 0
11 -305 367 -463 0
11 306 464 0
11 306 -286 0
11 -306 286 -464 0
11 307 -308 0
11 307 -309 0
11 -307 309 308 0
1 307 0
11 -308 313 0
11 -308 604 0
11 308 -604 -313 0
11 309 -310 0
11 309 -311 0
11 -309 311 310 0
11 -310 313 0
11 -310 606 0
11 310 -606 -313 0
11 311 -312 0
11 311 -318 0
11 -311 318 312 0
11 -312 313 0
11 -312 608 0
11 312 -608 -313 0
11 -313 -549 0
11 -313 314 0
11 313 -314 549 0
11 -314 48 0
11 -314 315 0
11 314 -315 -48 0
11 -315 316 0
11 -315 317 0
11 315 -317 -316 0
11 316 551 0
11 316 -286 0
11 -316 286 -551 0
11 317 552 0
11 317 -293 0
11 -317 293 -552 0
11 -318 319 0
11 -318 609 0
11 318 -609 -319 0
11 -319 -536 0
11 -319 320 0
11 319 -320 536 0
11 -320 321 0
11 -320 322 0
11 320 -322 -321 0
11 321 538 0
11 321 -367 0
11 -321 367 -538 0
11 -322 323 0
11 -322 324 0
11 322 -324 -323 0
11 323 539 0
11 323 -286 0
11 -323 286 -539 0
11 324 540 0
11 324 -293 0
11 -324 293 -540 0
11 325 -213 0
11 325 -326 0
11 -325 326 213 0
11 326 -7 0
11 326 -289 0
11 -326 289 7 0
11 327 -328 0
11 327 -329 0
11 -327 329 328 0
11 -328 331 0
11 -328 585 0
11 328 -585 -331 0
11 329 -330 0
11 329 -334 0
11 -329 334 330 0
11 -330 331 0
11 -330 587 0
11 330 -587 -331 0
11 -331 -468 0
11 -331 332 0
11 331 -332 468 0
11 -332 32 0
11 -332 333 0
11 332 -333 -32 0
11 333 470 0
11 333 -325 0
11 -333 325 -470 0
11 334 -335 0
11 334 -339 0
11 -334 339 335 0
11 -335 336 0
11 -335 589 0
11 335 -589 -336 0
11 -336 -471 0
11 -336 337 0
11 336 -337 471 0
11 -337 27 0
11 -337 338 0
11 337 -338 -27 0
11 338 473 0
11 338 -325 0
11 -338 325 -473 0
11 -339 340 0
11 -339 590 0
11 339 -590 -340 0
11 -340 -462 0
11 -340 341 0
11 340 -341 462 0
11 -341 305 0
11 -341 342 0
11 341 -342 -305 0
11 342 464 0
11 342 -325 0
11 -342 325 -464 0
11 343 -344 0
11 343 -345 0
11 -343 345 344 0
1 343 0
11 -344 347 0
11 -344 604 0
11 344 -604 -347 0
11 345 -346 0
11 345 -352 0
11 -345 352 346 0
11 -346 347 0
11 -346 606 0
11 346 -606 -347 0
11 -347 -545 0
11 -347 348 0
11 347 -348 545 0
11 -348 55 0
11 -348 349 0
11 348 -349 -55 0
11 -349 350 0
11 -349 351 0
11 349 -351 -350 0
11 350 547 0
11 350 -325 0
11 -350 325 -547 0
11 351 548 0
11 351 -327 0
11 -351 327 -548 0
11 352 -353 0
11 352 -359 0
11 -352 359 353 0
11 -353 354 0
11 -353 608 0
11 353 -608 -354 0
11 -354 -549 0
11 -354 355 0
11 354 -355 549 0
11 -355 48 0
11 -355 356 0
11 355 -356 -48 0
11 -356 357 0
11 -356 358 0
11 356 -358 -357 0
11 357 551 0
11 357 -325 0
11 -357 325 -551 0
11 358 552 0
11 358 -327 0
11 -358 327 -552 0
11 -359 360 0
11 -359 609 0
11 359 -609 -360 0
11 -360 -536 0
11 -360 361 0
11 360 -361 536 0
11 -361 321 0
11 -361 362 0
11 361 -362 -321 0
11 -362 363 0
11 -362 364 0
11 362 -364 -363 0
11 363 539 0
11 363 -325 0
11 -363 325 -539 0
11 364 540 0
11 364 -327 0
11 -364 327 -540 0
11 -365 0
11 368 566 0
11 368 -369 0
11 -368 369 -566 0
11 368 0
11 -369 -417 0
11 -369 -418 0
11 369 418 417 0
11 370 568 0
11 370 -371 0
11 -370 371 -568 0
11 370 0
11 -371 -417 0
11 -371 372 0
11 371 -372 417 0
11 -372 -418 0
11 -372 373 0
11 372 -373 418 0
11 -373 -419 0
11 -373 -420 0
11 373 420 419 0
11 374 -371 0
11 374 570 0
11 -374 -570 371 0
11 374 0
11 375 585 0
11 375 -376 0
11 -375 376 -585 0
11 375 0
11 -376 -462 0
11 -376 377 0
11 376 -377 462 0
11 -377 -463 0
11 -377 -464 0
11 377 464 463 0
11 378 587 0
11 378 -379 0
11 -378 379 -587 0
11 378 0
11 -379 -462 0
11 -379 380 0
11 379 -380 462 0
11 -380 -463 0
11 -380 381 0
11 380 -381 463 0
11 -381 -464 0
11 -381 382 0
11 381 -382 464 0
11 -382 -465 0
11 -382 383 0
11 382 -383 465 0
11 -383 -466 0
11 -383 -467 0
11 383 467 466 0
11 384 -379 0
11 384 589 0
11 -384 -589 379 0
11 384 0
11 385 604 0
11 385 -386 0
11 -385 386 -604 0
11 385 0
11 -386 -536 0
11 -386 387 0
11 386 -387 536 0
11 -387 -538 0
11 -387 388 0
11 387 -388 538 0
11 -388 -539 0
11 -388 -540 0
11 388 540 539 0
11 389 606 0
11 389 -390 0
11 -389 390 -606 0
11 389 0
11 -390 -536 0
11 -390 391 0
11 390 -391 536 0
11 -391 -538 0
11 -391 392 0
11 391 -392 538 0
11 -392 -539 0
11 -392 393 0
11 392 -393 539 0
11 -393 -540 0
11 -393 394 0
11 393 -394 540 0
11 -394 -541 0
11 -394 395 0
11 394 -395 541 0
11 -395 -542 0
11 -395 396 0
11 395 -396 542 0
11 -396 -543 0
11 -396 -544 0
11 396 544 543 0
11 397 -390 0
11 397 608 0
11 -397 -608 390 0
11 397 0
11 398 566 0
11 398 -399 0
11 -398 399 -566 0
11 398 0
11 -399 400 0
11 -399 403 0
11 399 -403 -400 0
11 400 -401 0
11 400 -402 0
11 -400 402 401 0
11 -401 -420 0
11 -401 419 0
11 401 -419 420 0
11 -402 -419 0
11 -402 420 0
11 402 -420 419 0
11 -403 404 0
11 -403 407 0
11 403 -407 -404 0
11 404 -405 0
11 404 -406 0
11 -404 406 405 0
11 -405 -422 0
11 -405 421 0
11 405 -421 422 0
11 -406 -421 0
11 -406 422 0
11 406 -422 421 0
11 407 -408 0
11 407 -409 0
11 -407 409 408 0
11 -408 -424 0
11 -408 423 0
11 408 -423 424 0
11 -409 -423 0
11 -409 424 0
11 409 -424 423 0
11 410 568 0
11 410 -403 0
11 -410 403 -568 0
11 410 0
11 411 570 0
11 411 -403 0
11 -411 403 -570 0
11 411 0
11 412 571 0
11 412 -413 0
11 -412 413 -571 0
11 412 0
11 -413 399 0
11 -413 414 0
11 413 -414 -399 0
11 414 -415 0
11 414 -416 0
11 -414 416 415 0
11 -415 -418 0
11 -415 417 0
11 415 -417 418 0
11 -416 -417 0
11 -416 418 0
11 416 -418 417 0
11 425 585 0
11 425 -426 0
11 -425 426 -585 0
11 425 0
11 -426 427 0
11 -426 434 0
11 426 -434 -427 0
11 427 -428 0
11 427 -432 0
11 -427 432 428 0
11 428 -429 0
11 428 -430 0
11 -428 430 429 0
11 -429 383 0
11 -429 465 0
11 429 -465 -383 0
11 -430 431 0
11 -430 466 0
11 430 -466 -431 0
11 -431 -465 0
11 -431 -467 0
11 431 467 465 0
11 -432 433 0
11 -432 467 0
11 432 -467 -433 0
11 -433 -465 0
11 -433 -466 0
11 433 466 465 0
11 -434 435 0
11 -434 443 0
11 434 -443 -435 0
11 435 -436 0
11 435 -441 0
11 -435 441 436 0
11 436 -437 0
11 436 -439 0
11 -436 439 437 0
11 -437 438 0
11 -437 468 0
11 437 -468 -438 0
11 -438 -469 0
11 -438 -470 0
11 438 470 469 0
11 -439 440 0
11 -439 469 0
11 439 -469 -440 0
11 -440 -468 0
11 -440 -470 0
11 440 470 468 0
11 -441 442 0
11 -441 470 0
11 441 -470 -442 0
11 -442 -468 0
11 -442 -469 0
11 442 469 468 0
11 443 -444 0
11 443 -449 0
11 -443 449 444 0
11 444 -445 0
11 444 -447 0
11 -444 447 445 0
11 -445 446 0
11 -445 471 0
11 445 -471 -446 0
11 -446 -472 0
11 -446 -473 0
11 446 473 472 0
11 -447 448 0
11 -447 472 0
11 447 -472 -448 0
11 -448 -471 0
11 -448 -473 0
11 448 473 471 0
11 -449 450 0
11 -449 473 0
11 449 -473 -450 0
11 -450 -471 0
11 -450 -472 0
11 450 472 471 0
11 451 587 0
11 451 -434 0
11 -451 434 -587 0
11 451 0
11 452 589 0
11 452 -434 0
11 -452 434 -589 0
11 452 0
11 453 590 0
11 453 -454 0
11 -453 454 -590 0
11 453 0
11 -454 426 0
11 -454 455 0
11 454 -455 -426 0
11 455 -456 0
11 455 -460 0
11 -455 460 456 0
11 456 -457 0
11 456 -458 0
11 -456 458 457 0
11 -457 377 0
11 -457 462 0
11 457 -462 -377 0
11 -458 459 0
11 -458 463 0
11 458 -463 -459 0
11 -459 -462 0
11 -459 -464 0
11 459 464 462 0
11 -460 461 0
11 -460 464 0
11 460 -464 -461 0
11 -461 -462 0
11 -461 -463 0
11 461 463 462 0
11 474 604 0
11 474 -475 0
11 -474 475 -604 0
11 474 0
11 -475 476 0
11 -475 490 0
11 475 -490 -476 0
11 476 -477 0
11 476 -483 0
11 -476 483 477 0
11 477 -478 0
11 477 -480 0
11 -477 480 478 0
11 -478 479 0
11 -478 541 0
11 478 -541 -479 0
11 -479 -543 0
11 -479 486 0
11 479 -486 543 0
11 -480 481 0
11 -480 542 0
11 480 -542 -481 0
11 -481 -543 0
11 -481 482 0
11 481 -482 543 0
11 -482 -541 0
11 -482 -544 0
11 482 544 541 0
11 483 -484 0
11 483 -487 0
11 -483 487 484 0
11 -484 485 0
11 -484 543 0
11 484 -543 -485 0
11 -485 -541 0
11 -485 486 0
11 485 -486 541 0
11 -486 -542 0
11 -486 -544 0
11 486 544 542 0
11 -487 488 0
11 -487 544 0
11 487 -544 -488 0
11 -488 -541 0
11 -488 489 0
11 488 -489 541 0
11 -489 -542 0
11 -489 -543 0
11 489 543 542 0
11 -490 491 0
11 -490 505 0
11 490 -505 -491 0
11 491 -492 0
11 491 -498 0
11 -491 498 492 0
11 492 -493 0
11 492 -495 0
11 -492 495 493 0
11 -493 494 0
11 -493 545 0
11 493 -545 -494 0
11 -494 -547 0
11 -494 501 0
11 494 -501 547 0
11 -495 496 0
11 -495 546 0
11 495 -546 -496 0
11 -496 -547 0
11 -496 497 0
11 496 -497 547 0
11 -497 -545 0
11 -497 -548 0
11 497 548 545 0
11 498 -499 0
11 498 -502 0
11 -498 502 499 0
11 -499 500 0
11 -499 547 0
11 499 -547 -500 0
11 -500 -545 0
11 -500 501 0
11 500 -501 545 0
11 -501 -546 0
11 -501 -548 0
11 501 548 546 0
11 -502 503 0
11 -502 548 0
11 502 -548 -503 0
11 -503 -545 0
11 -503 504 0
11 503 -504 545 0
11 -504 -546 0
11 -504 -547 0
11 504 547 546 0
11 505 -506 0
11 505 -512 0
11 -505 512 506 0
11 506 -507 0
11 506 -509 0
11 -506 509 507 0
11 -507 508 0
11 -507 549 0
11 507 -549 -508 0
11 -508 -551 0
11 -508 515 0
11 508 -515 551 0
11 -509 510 0
11 -509 550 0
11 509 -550 -510 0
11 -510 -551 0
11 -510 511 0
11 510 -511 551 0
11 -511 -549 0
11 -511 -552 0
11 511 552 549 0
11 512 -513 0
11 512 -516 0
11 -512 516 513 0
11 -513 514 0
11 -513 551 0
11 513 -551 -514 0
11 -514 -549 0
11 -514 515 0
11 514 -515 549 0
11 -515 -550 0
11 -515 -552 0
11 515 552 550 0
11 -516 517 0
11 -516 552 0
11 516 -552 -517 0
11 -517 -549 0
11 -517 518 0
11 517 -518 549 0
11 -518 -550 0
11 -518 -551 0
11 518 551 550 0
11 519 606 0
11 519 -490 0
11 -519 490 -606 0
11 519 0
11 520 608 0
11 520 -490 0
11 -520 490 -608 0
11 520 0
11 521 609 0
11 521 -522 0
11 -521 522 -609 0
11 521 0
11 -522 475 0
11 -522 523 0
11 522 -523 -475 0
11 523 -524 0
11 523 -530 0
11 -523 530 524 0
11 524 -525 0
11 524 -527 0
11 -524 527 525 0
11 -525 526 0
11 -525 536 0
11 525 -536 -526 0
11 -526 -539 0
11 -526 533 0
11 526 -533 539 0
11 -527 528 0
11 -527 538 0
11 527 -538 -528 0
11 -528 -539 0
11 -528 529 0
11 528 -529 539 0
11 -529 -536 0
11 -529 -540 0
11 529 540 536 0
11 530 -531 0
11 530 -534 0
11 -530 534 531 0
11 -531 532 0
11 -531 539 0
11 531 -539 -532 0
11 -532 -536 0
11 -532 533 0
11 532 -533 536 0
11 -533 -538 0
11 -533 -540 0
11 533 540 538 0
11 -534 535 0
11 -534 540 0
11 534 -540 -535 0
11 -535 -536 0
11 -535 537 0
11 535 -537 536 0
11 -537 -538 0
11 -537 -539 0
11 537 539 538 0
11 553 -554 0
11 553 -557 0
11 -553 557 554 0
11 553 0
11 -554 -568 0
11 -554 555 0
11 554 -555 568 0
11 -555 -570 0
11 -555 556 0
11 555 -556 570 0
11 -556 -571 0
11 -556 566 0
11 556 -566 571 0
11 557 -558 0
11 557 -561 0
11 -557 561 558 0
11 -558 -566 0
11 -558 559 0
11 558 -559 566 0
11 -559 -570 0
11 -559 560 0
11 559 -560 570 0
11 -560 -571 0
11 -560 568 0
11 560 -568 571 0
11 561 -562 0
11 561 -565 0
11 -561 565 562 0
11 -562 -566 0
11 -562 563 0
11 562 -563 566 0
11 -563 -568 0
11 -563 564 0
11 563 -564 568 0
11 -564 -571 0
11 -564 570 0
11 564 -570 571 0
11 -565 -566 0
11 -565 567 0
11 565 -567 566 0
11 -567 -568 0
11 -567 569 0
11 567 -569 568 0
11 -569 -570 0
11 -569 571 0
11 569 -571 570 0
11 572 -573 0
11 572 -576 0
11 -572 576 573 0
11 572 0
11 -573 -587 0
11 -573 574 0
11 573 -574 587 0
11 -574 -589 0
11 -574 575 0
11 574 -575 589 0
11 -575 -590 0
11 -575 585 0
11 575 -585 590 0
11 576 -577 0
11 576 -580 0
11 -576 580 577 0
11 -577 -585 0
11 -577 578 0
11 577 -578 585 0
11 -578 -589 0
11 -578 579 0
11 578 -579 589 0
11 -579 -590 0
11 -579 587 0
11 579 -587 590 0
11 580 -581 0
11 580 -584 0
11 -580 584 581 0
11 -581 -585 0
11 -581 582 0
11 581 -582 585 0
11 -582 -587 0
11 -582 583 0
11 582 -583 587 0
11 -583 -590 0
11 -583 589 0
11 583 -589 590 0
11 -584 -585 0
11 -584 586 0
11 584 -586 585 0
11 -586 -587 0
11 -586 588 0
11 586 -588 587 0
11 -588 -589 0
11 -588 590 0
11 588 -590 589 0
11 591 -592 0
11 591 -595 0
11 -591 595 592 0
11 591 0
11 -592 -606 0
11 -592 593 0
11 592 -593 606 0
11 -593 -608 0
11 -593 594 0
11 593 -594 608 0
11 -594 -609 0
11 -594 604 0
11 594 -604 609 0
11 595 -596 0
11 595 -599 0
11 -595 599 596 0
11 -596 -604 0
11 -596 597 0
11 596 -597 604 0
11 -597 -608 0
11 -597 598 0
11 597 -598 608 0
11 -598 -609 0
11 -598 606 0
11 598 -606 609 0
11 599 -600 0
11 599 -603 0
11 -599 603 600 0
11 -600 -604 0
11 -600 601 0
11 600 -601 604 0
11 -601 -606 0
11 -601 602 0
11 601 -602 606 0
11 -602 -609 0
11 -602 608 0
11 602 -608 609 0
11 -603 -604 0
11 -603 605 0
11 603 -605 604 0
11 -605 -606 0
11 -605 607 0
11 605 -607 606 0
11 -607 -608 0
11 -607 609 0
11 607 -609 608 0
